w = 22;
n = 16;
measures = [|3, 3,
|3, 4,
|3, 5,
|3, 6,
|3, 7,
|3, 8,
|3, 9,
|3, 10,
|3, 11,
|3, 12,
|3, 13,
|3, 14,
|3, 22,
|4, 3,
|4, 19,
|6, 4,
|];
initial_x = [0, 3, 6, 9, 12, 15, 18, 0, 3, 6, 9, 12, 15, 18, 0, 4];
initial_y = [0, 0, 0, 0, 0, 0, 0, 9, 9, 9, 9, 9, 9, 9, 31, 31];